p tw 120 340
0 1
0 2
0 41
0 42
0 43
0 44
1 2
1 82
2 46
2 83
2 98
2 104
3 4
3 97
4 5
4 100
5 6
5 100
6 101
7 8
7 89
8 27
8 28
8 29
8 30
9 10
9 58
10 24
11 12
11 13
11 68
11 79
11 93
11 114
12 13
12 64
13 70
14 15
14 54
14 110
15 53
15 64
15 68
15 69
15 70
15 71
16 17
16 18
16 19
16 20
16 56
16 59
16 60
16 61
16 62
16 63
17 18
17 19
17 20
17 21
17 22
17 23
18 19
18 20
18 72
18 98
18 99
19 20
19 45
19 46
19 47
19 48
19 49
19 50
20 73
21 22
21 23
21 60
21 87
22 23
22 47
22 59
22 72
22 73
23 53
23 54
23 55
23 56
24 57
24 58
25 26
25 104
25 109
26 41
26 82
26 83
26 84
26 85
26 86
27 28
27 29
27 30
27 74
27 95
27 106
27 112
27 113
27 114
28 29
28 30
28 75
29 30
29 115
30 44
30 76
30 89
30 90
30 91
30 92
31 32
31 36
32 37
33 34
33 80
33 91
33 106
33 107
34 81
34 92
34 111
34 113
35 36
35 37
35 65
36 37
38 39
38 40
38 118
39 40
39 105
40 94
41 42
41 43
41 44
41 82
41 83
41 84
41 85
41 86
42 43
42 44
42 108
42 119
43 44
43 102
43 107
43 111
44 76
44 89
44 90
44 91
44 92
45 46
45 47
45 48
45 49
45 50
45 51
46 47
46 48
46 49
46 50
46 83
46 98
46 104
47 48
47 49
47 50
47 59
47 72
47 73
48 49
48 50
48 97
48 99
49 50
49 62
49 116
50 52
50 63
50 66
50 67
51 52
52 63
52 66
52 67
53 54
53 55
53 56
53 64
53 68
53 69
53 70
53 71
54 55
54 56
54 110
55 56
55 77
55 93
56 59
56 60
56 61
56 62
56 63
57 58
57 88
59 60
59 61
59 62
59 63
59 72
59 73
60 61
60 62
60 63
60 87
61 62
61 63
61 117
62 63
62 116
63 66
63 67
64 68
64 69
64 70
64 71
65 87
66 67
66 117
67 116
68 69
68 70
68 71
68 79
68 93
68 114
69 70
69 71
69 77
70 71
71 110
72 73
72 98
72 99
74 75
74 76
74 95
74 106
74 112
74 113
74 114
75 76
76 89
76 90
76 91
76 92
77 93
78 79
78 80
78 81
78 95
78 96
79 80
79 81
79 93
79 114
80 81
80 91
80 106
80 107
81 92
81 111
81 113
82 83
82 84
82 85
82 86
83 84
83 85
83 86
83 98
83 104
84 85
84 86
84 108
85 86
85 119
86 109
88 96
89 90
89 91
89 92
90 91
90 92
90 102
90 103
91 92
91 106
91 107
92 111
92 113
93 114
94 118
95 96
95 106
95 112
95 113
95 114
97 99
98 99
98 104
100 101
102 103
102 107
102 111
103 105
104 109
106 107
106 112
106 113
106 114
107 111
108 119
111 113
112 113
112 114
112 115
113 114
